879243
25, 79, 17, 59, 24, 65, 7, 52, 43, 19, 12, 26, 94, 40, 29, 51, 78, 73, 22, 84, 92, 39, 14, 81, 86, 88, 50, 37, 48, 1, 9, 33, 57, 47, 95, 66, 28, 11, 23, 98, 54, 71, 34, 90, 45, 87, 76, 38, 4, 80, 99, 68, 93, 62, 31, 60, 21, 20, 96, 30, 77, 10, 56, 18, 41, 69, 75, 6, 49, 55, 44, 91, 53, 8, 89, 85, 3, 5, 64, 27, 2, 42, 97, 35, 83, 15, 16, 82, 58, 61, 67, 46, 36, 72, 63, 13, 32, 70, 74
